[ma. 03. april 15:05:11 +0200 2023]  ./input/alternate_g_np/50-5-0.gcc
Set parameter Username
Academic license - for non-commercial use only - expires 2024-03-28
Set parameter TimeLimit to value 1800
Set parameter PreCrush to value 1
Set parameter LazyConstraints to value 1
Gurobi Optimizer version 10.0.1 build v10.0.1rc0 (linux64)

CPU model: AMD Ryzen 9 5950X 16-Core Processor, instruction set [SSE2|AVX|AVX2]
Thread count: 16 physical cores, 32 logical processors, using up to 32 threads

Optimize a model with 56 rows, 350 columns and 950 nonzeros
Model fingerprint: 0xba97321d
Variable types: 0 continuous, 350 integer (350 binary)
Coefficient statistics:
  Matrix range     [1e+00, 1e+00]
  Objective range  [1e+00, 1e+02]
  Bounds range     [1e+00, 1e+00]
  RHS range        [1e+00, 1e+00]
Presolve time: 0.00s
Presolved: 56 rows, 350 columns, 950 nonzeros
Variable types: 0 continuous, 350 integer (350 binary)

Root relaxation: objective 2.612000e+03, 6 iterations, 0.00 seconds (0.00 work units)

    Nodes    |    Current Node    |     Objective Bounds      |     Work
 Expl Unexpl |  Obj  Depth IntInf | Incumbent    BestBd   Gap | It/Node Time

     0     0 2612.00000    0    6          - 2612.00000      -     -    0s
     0     0 2612.00000    0    -          - 2612.00000      -     -    0s
     0     0 2612.00000    0    -          - 2612.00000      -     -    0s
     0     0 2612.00000    0    4          - 2612.00000      -     -    0s
     0     0 2612.00000    0    -          - 2612.00000      -     -    0s
     0     0 2612.00000    0    9          - 2612.00000      -     -    0s
     0     0 2612.00000    0    -          - 2612.00000      -     -    0s
     0     0 2612.00000    0    4          - 2612.00000      -     -    0s
     0     0 2612.00000    0    -          - 2612.00000      -     -    0s
     0     0 2612.00000    0    2          - 2612.00000      -     -    0s
     0     2 2612.00000    0    9          - 2612.00000      -     -    0s
 13707  8032 2612.00000   34   70          - 2612.00000      -  19.1    5s
 24894 12830 2601.52630   43  105          - 2612.00000      -  23.9   10s
 34403 19558 2570.85714   42   49          - 2612.00000      -  29.4   15s
 42738 24852 infeasible   32               - 2612.00000      -  33.6   20s
 50190 29677 2365.00000   42   41          - 2612.00000      -  38.1   25s
 56875 33992 2591.97077   45   93          - 2612.00000      -  41.2   30s
 64521 39125 2384.20909   66   38          - 2612.00000      -  44.6   35s
*65094 24409              49    2456.0000000 2612.00000  6.35%  44.7   36s
*67543 23344              64    2464.0000000 2612.00000  6.01%  46.0   37s
 69689 25208     cutoff   62      2464.00000 2612.00000  6.01%  47.7   40s
*70480 13627              76    2542.0000000 2612.00000  2.75%  48.3   40s
 73763 14549 2612.00000   54   68 2542.00000 2612.00000  2.75%  51.1   45s
 77732 15534 2609.92601   41   96 2542.00000 2612.00000  2.75%  54.8   50s
H77806 10586                    2578.0000000 2612.00000  1.32%  54.9   50s
 79212 10946 2612.00000   54   50 2578.00000 2612.00000  1.32%  56.7   66s
 81330 11747 2612.00000   46   66 2578.00000 2612.00000  1.32%  59.5   71s
*82353  2111              33    2612.0000000 2612.00000  0.00%  60.6   71s

Cutting planes:
  User: 230
  Lazy constraints: 5308

Explored 83945 nodes (5239671 simplex iterations) in 71.76 seconds (96.13 work units)
Thread count was 32 (of 32 available processors)

Solution count 5: 2612 2578 2542 ... 2456

Optimal solution found (tolerance 1.00e-04)
Best objective 2.612000000000e+03, best bound 2.612000000000e+03, gap 0.0000%

User-callback calls 180026, time in user-callback 12.90 sec
Minimal separator inequalities added: 414484
Indegree inequalities added: 424248
Passed solution check
[ma. 03. april 15:06:23 +0200 2023]  done

